(set-logic QF_S)
(declare-fun var0 () String)
(assert (str.in.re var0 (re.++ (re.* (re.* (str.to.re "00"))) (re.++ (re.+ (re.* (str.to.re "1"))) (re.++ (re.union (re.* (str.to.re "22")) (re.* (str.to.re "33"))) (re.++ (re.* (re.* (str.to.re "4"))) (re.++ (re.+ (re.+ (str.to.re "555"))) (re.++ (re.* (re.+ (str.to.re "66"))) (re.++ (re.union (re.+ (str.to.re "777")) (re.+ (str.to.re "88"))) (re.++ (re.* (re.+ (str.to.re "9"))) (re.++ (re.* (re.union (str.to.re "a") (str.to.re "b"))) (re.++ (re.union (re.* (str.to.re "ccc")) (re.* (str.to.re "ddd"))) (re.++ (re.+ (re.* (str.to.re "ee"))) (re.++ (re.+ (re.union (str.to.re "f") (str.to.re "ggg"))) (re.++ (re.* (re.* (str.to.re "hhh"))) (re.++ (re.union (re.union (str.to.re "i") (str.to.re "j")) (re.union (str.to.re "kk") (str.to.re "ll"))) (re.++ (re.* (re.union (str.to.re "mm") (str.to.re "nn"))) (re.++ (re.union (re.union (str.to.re "o") (str.to.re "ppp")) (re.union (str.to.re "q") (str.to.re "rr"))) (re.++ (re.* (re.* (str.to.re "ss"))) (re.++ (re.* (re.* (str.to.re "tt"))) (re.++ (re.* (re.union (str.to.re "uuu") (str.to.re "vv"))) (re.++ (re.+ (re.+ (str.to.re "w"))) (re.++ (re.union (re.union (str.to.re "x") (str.to.re "y")) (re.union (str.to.re "z") (str.to.re "A"))) (re.++ (re.* (re.+ (str.to.re "B"))) (re.++ (re.+ (re.+ (str.to.re "C"))) (re.++ (re.* (re.union (str.to.re "DDD") (str.to.re "EE"))) (re.++ (re.* (re.+ (str.to.re "F"))) (re.++ (re.+ (re.+ (str.to.re "GGG"))) (re.++ (re.+ (re.* (str.to.re "HHH"))) (re.++ (re.* (re.+ (str.to.re "III"))) (re.++ (re.+ (re.+ (str.to.re "J"))) (re.++ (re.union (re.+ (str.to.re "KKK")) (re.+ (str.to.re "L"))) (re.++ (re.+ (re.+ (str.to.re "M"))) (re.++ (re.* (re.+ (str.to.re "NNN"))) (re.++ (re.+ (re.+ (str.to.re "O"))) (re.++ (re.union (re.+ (str.to.re "PP")) (re.+ (str.to.re "Q"))) (re.++ (re.+ (re.* (str.to.re "R"))) (re.++ (re.+ (re.* (str.to.re "SS"))) (re.++ (re.+ (re.union (str.to.re "TTT") (str.to.re "UU"))) (re.++ (re.* (re.* (str.to.re "VVV"))) (re.++ (re.+ (re.union (str.to.re "W") (str.to.re "XX"))) (re.++ (re.+ (re.* (str.to.re "YYY"))) (re.++ (re.+ (re.* (str.to.re "Z"))) (re.++ (re.* (re.union (str.to.re "!!!") (str.to.re """"))) (re.++ (re.union (re.union (str.to.re "###") (str.to.re "$$")) (re.union (str.to.re "%%%") (str.to.re "&&&"))) (re.++ (re.* (re.union (str.to.re "'") (str.to.re "("))) (re.++ (re.+ (re.+ (str.to.re ")"))) (re.++ (re.union (re.union (str.to.re "***") (str.to.re "+++")) (re.union (str.to.re ",,,") (str.to.re "--"))) (re.++ (re.union (re.union (str.to.re "..") (str.to.re "//")) (re.union (str.to.re ":") (str.to.re ";;;"))) (re.++ (re.* (re.union (str.to.re "<<<") (str.to.re "="))) (re.++ (re.* (re.+ (str.to.re ">>>"))) (re.++ (re.+ (re.+ (str.to.re "?"))) (re.+ (re.* (str.to.re "@@")))))))))))))))))))))))))))))))))))))))))))))))))))))))
(check-sat)